certificates/rado_a13_c115_N27.cnf
c Rad2 upper bound instance: x1 + 13*x2 - x3 = 115, interval [1,27]
p cnf 27 112
1 3 9 0
-1 -3 -9 0
1 10 16 0
-1 -10 -16 0
2 4 9 0
-2 -4 -9 0
2 10 17 0
-2 -10 -17 0
3 5 9 0
-3 -5 -9 0
3 10 18 0
-3 -10 -18 0
4 6 9 0
-4 -6 -9 0
4 10 19 0
-4 -10 -19 0
5 7 9 0
-5 -7 -9 0
5 10 20 0
-5 -10 -20 0
6 8 9 0
-6 -8 -9 0
6 10 21 0
-6 -10 -21 0
7 9 0
-7 -9 0
7 10 22 0
-7 -10 -22 0
8 9 10 0
-8 -9 -10 0
8 10 23 0
-8 -10 -23 0
9 11 0
-9 -11 0
9 10 24 0
-9 -10 -24 0
9 10 12 0
-9 -10 -12 0
10 25 0
-10 -25 0
9 11 13 0
-9 -11 -13 0
10 11 26 0
-10 -11 -26 0
1 8 12 0
-1 -8 -12 0
9 12 14 0
-9 -12 -14 0
10 12 27 0
-10 -12 -27 0
2 8 13 0
-2 -8 -13 0
9 13 15 0
-9 -13 -15 0
3 8 14 0
-3 -8 -14 0
9 14 16 0
-9 -14 -16 0
4 8 15 0
-4 -8 -15 0
9 15 17 0
-9 -15 -17 0
5 8 16 0
-5 -8 -16 0
9 16 18 0
-9 -16 -18 0
6 8 17 0
-6 -8 -17 0
9 17 19 0
-9 -17 -19 0
7 8 18 0
-7 -8 -18 0
9 18 20 0
-9 -18 -20 0
8 19 0
-8 -19 0
9 19 21 0
-9 -19 -21 0
8 9 20 0
-8 -9 -20 0
9 20 22 0
-9 -20 -22 0
8 10 21 0
-8 -10 -21 0
9 21 23 0
-9 -21 -23 0
8 11 22 0
-8 -11 -22 0
9 22 24 0
-9 -22 -24 0
8 12 23 0
-8 -12 -23 0
9 23 25 0
-9 -23 -25 0
8 13 24 0
-8 -13 -24 0
9 24 26 0
-9 -24 -26 0
1 7 25 0
-1 -7 -25 0
8 14 25 0
-8 -14 -25 0
9 25 27 0
-9 -25 -27 0
2 7 26 0
-2 -7 -26 0
8 15 26 0
-8 -15 -26 0
3 7 27 0
-3 -7 -27 0
8 16 27 0
-8 -16 -27 0
