certificates/rado_a13_c115_N27.drat
-25 -27 0
-10 -26 0
d -10 -11 -26 0
-9 -10 0
-27 0
25 0
-10 0
12 0
-9 0
7 0
11 0
24 0
8 0
-1 0
-18 0
-19 0
-22 0
-23 0
-13 0
-14 0
16 0
3 0
20 0
21 0
17 0
4 0
15 0
-5 0
-6 0
0
